%
% Generated Sudoku 16x16
% Density approximation: 0.40
%
x = array2d(1..n, 1..n, [
   _,  16,   _,  15,  11,   7,   8,   _,  13,   3,  14,   _,   1,   _,   _,   _,
   _,   _,   _,   _,   9,   _,   _,   _,  11,   _,   4,   _,  15,   3,   2,   _,
   1,   _,  14,  11,   3,   2,   _,   _,  10,   _,  12,   _,   _,   _,   6,   _,
   _,   _,   _,   _,   _,  10,   _,   _,   _,  15,   _,   2,   8,   _,  13,   _,
   4,   _,   _,   _,   _,   _,   _,  12,   _,  16,  11,   _,   6,   _,   _,   3,
   7,   _,  16,   _,   _,   _,  11,   _,   _,   _,   _,   _,   _,  15,   _,   8,
  15,   _,   _,  14,   8,   _,   _,   2,   _,   _,   7,   _,   _,   9,  12,   _,
  10,   8,   _,   _,   _,   _,   3,   _,  12,   9,   1,   _,   _,   _,   4,   _,
   _,   4,   9,   _,   _,  12,   _,   _,  15,  10,   6,   _,   _,   _,   5,   _,
   8,   _,  11,   _,  15,   _,   _,   6,   _,   _,   _,   1,   3,   4,   _,  12,
   _,  15,   _,   _,   _,   _,  10,   _,   _,   _,   _,   _,  14,   _,   7,   _,
   3,   _,   6,   _,   _,   4,   _,   _,  14,   _,   _,   _,  11,  16,   _,   _,
  14,  12,  15,   _,   1,   _,   _,   _,   4,   _,  13,   _,   _,   _,   _,   2,
   _,   _,   _,   _,   _,   _,   5,   _,   _,  14,   _,   8,  12,   _,   _,  15,
   _,   6,   _,   _,   _,  14,   _,  15,   _,   _,   _,  10,   4,   1,   _,   _,
   _,  13,   _,  10,   _,   _,   2,   _,   6,   _,   _,   _,   _,  14,  16,   5
]);

n = 16;
